solution status: optimal solution found
objective value:                     118573.980908162
d11(0,0)                                            1 	(obj:0)
d11(1,1)                                            1 	(obj:0)
d11(2,3)                                            1 	(obj:0)
d11(2,4)                                            1 	(obj:0)
d11(2,5)                                            1 	(obj:0)
d11(2,6)                                            1 	(obj:0)
d11(3,11)                           0.999999999999985 	(obj:0)
d11(3,13)                                           1 	(obj:0)
d12(3,8)                                            1 	(obj:0)
d12(3,10)                                           1 	(obj:0)
d12(3,12)                                           1 	(obj:0)
d12(3,14)                                           1 	(obj:0)
d21(2,3)                                            1 	(obj:0)
d21(3,7)                                            1 	(obj:0)
d21(3,8)                                            1 	(obj:0)
d21(3,9)                                            1 	(obj:0)
y2(3,8)                              1385.48851144895 	(obj:0)
y2(3,10)                             1385.48851144895 	(obj:0)
y2(3,12)                             1385.48851144895 	(obj:0)
y2(3,14)                             1385.48851144895 	(obj:0)
STE(1,1)                             12831.7501011112 	(obj:0)
STE(0,0)                                        15750 	(obj:0)
STE(1,2)                                        14490 	(obj:0)
STE(2,3)                             9051.75010111051 	(obj:0)
STE(2,4)                             10709.9999999993 	(obj:0)
STE(2,5)                             10709.9999999994 	(obj:0)
STE(2,6)                             12368.2498988882 	(obj:0)
STE(3,7)                             7791.75010111051 	(obj:0)
STE(3,8)                             9107.96418698701 	(obj:0)
STE(3,9)                             9449.99999999933 	(obj:0)
STE(3,10)                            10766.2140858758 	(obj:0)
STE(3,11)                            9449.99999999937 	(obj:0)
STE(3,12)                            10766.2140858759 	(obj:0)
STE(3,13)                            11108.2498988882 	(obj:0)
STE(3,14)                            12424.4639847647 	(obj:0)
AVE(2)                               3315.65537776224 	(obj:0)
WB(3)                                3315.65799770399 	(obj:0)
y1(1,1)                              1492.42490899996 	(obj:0)
y1(2,3)                              2268.00000000058 	(obj:0)
y1(2,4)                              775.575091000646 	(obj:0)
y1(2,5)                              2268.00000000057 	(obj:0)
y1(2,6)                              775.575091000646 	(obj:0)
AVE(3)                               3315.65799770399 	(obj:0)
WB(1)                                3248.33172520918 	(obj:0)
WG(2)                                3315.65537776224 	(obj:10)
BG(1)                                4196.29249897959 	(obj:10)
BG(2)                                1672.04027529962 	(obj:10)
BG(3)                                2673.40993877551 	(obj:10)
AVE(1)                               3248.33172520918 	(obj:0)
